(set-logic QF_UF)
(declare-fun A0 () Bool)
(declare-fun A1 () Bool)
(declare-fun A2 () Bool)
(declare-fun A3 () Bool)
(declare-fun A4 () Bool)
(declare-fun A5 () Bool)
(declare-fun A6 () Bool)
(declare-fun A7 () Bool)
(declare-fun A8 () Bool)
(declare-fun A9 () Bool)
(declare-fun A11 () Bool)
(declare-fun A12 () Bool)
(declare-fun A13 () Bool)
(declare-fun A14 () Bool)
(declare-fun A15 () Bool)
(declare-fun A17 () Bool)
(declare-fun A18 () Bool)
(declare-fun A19 () Bool)
(declare-fun A20 () Bool)
(declare-fun A21 () Bool)
(declare-fun A22 () Bool)
(declare-fun A23 () Bool)
(declare-fun A24 () Bool)
(assert (let ((.def_0 (not A9))) (let ((.def_1 (or A13 .def_0))) (let ((.def_2 (not .def_1))) (let ((.def_3 (not A23))) (let ((.def_4 (or A13 .def_3))) (let ((.def_5 (not .def_4))) (let ((.def_6 (and .def_5 .def_2))) (let ((.def_7 (not .def_6))) (let ((.def_8 (not A20))) (let ((.def_9 (and .def_8 A20))) (let ((.def_10 (not A21))) (let ((.def_11 (or A22 .def_10))) (let ((.def_12 (not .def_11))) (let ((.def_13 (or .def_12 .def_9))) (let ((.def_14 (and .def_13 .def_7))) (let ((.def_15 (or A12 A13))) (let ((.def_16 (= A4 A3))) (let ((.def_17 (not .def_16))) (let ((.def_18 (or .def_17 .def_15))) (let ((.def_19 (not .def_18))) (let ((.def_20 (= A1 A1))) (let ((.def_21 (not A14))) (let ((.def_22 (or .def_21 A6))) (let ((.def_23 (and .def_22 .def_20))) (let ((.def_24 (and .def_23 .def_19))) (let ((.def_25 (not .def_24))) (let ((.def_26 (or .def_25 .def_14))) (let ((.def_27 (not A15))) (let ((.def_28 (and .def_27 A24))) (let ((.def_29 (not A13))) (let ((.def_30 (or .def_3 .def_29))) (let ((.def_31 (not .def_30))) (let ((.def_32 (or .def_31 .def_28))) (let ((.def_33 (and A19 A14))) (let ((.def_34 (not .def_33))) (let ((.def_35 (not A5))) (let ((.def_36 (and A15 .def_35))) (let ((.def_37 (and .def_36 .def_34))) (let ((.def_38 (and .def_37 .def_32))) (let ((.def_39 (not .def_38))) (let ((.def_40 (not A0))) (let ((.def_41 (or .def_40 A3))) (let ((.def_42 (not A19))) (let ((.def_43 (and .def_42 .def_0))) (let ((.def_44 (and .def_43 .def_41))) (let ((.def_45 (not .def_44))) (let ((.def_46 (or .def_42 A19))) (let ((.def_47 (not .def_46))) (let ((.def_48 (not A4))) (let ((.def_49 (and .def_10 .def_48))) (let ((.def_50 (and .def_49 .def_47))) (let ((.def_51 (or .def_50 .def_45))) (let ((.def_52 (not .def_51))) (let ((.def_53 (or .def_52 .def_39))) (let ((.def_54 (not .def_53))) (let ((.def_55 (and .def_54 .def_26))) (let ((.def_56 (and A7 A4))) (let ((.def_57 (not .def_56))) (let ((.def_58 (not A8))) (let ((.def_59 (or .def_0 .def_58))) (let ((.def_60 (not .def_59))) (let ((.def_61 (and .def_60 .def_57))) (let ((.def_62 (not .def_61))) (let ((.def_63 (or .def_10 A19))) (let ((.def_64 (not .def_63))) (let ((.def_65 (not A24))) (let ((.def_66 (or .def_65 A2))) (let ((.def_67 (and .def_66 .def_64))) (let ((.def_68 (and .def_67 .def_62))) (let ((.def_69 (not A18))) (let ((.def_70 (and A21 .def_69))) (let ((.def_71 (and A4 .def_40))) (let ((.def_72 (or .def_71 .def_70))) (let ((.def_73 (and .def_42 A19))) (let ((.def_74 (not A6))) (let ((.def_75 (or A15 .def_74))) (let ((.def_76 (not .def_75))) (let ((.def_77 (= .def_76 .def_73))) (let ((.def_78 (or .def_77 .def_72))) (let ((.def_79 (not .def_78))) (let ((.def_80 (and .def_79 .def_68))) (let ((.def_81 (not .def_80))) (let ((.def_82 (and A5 A6))) (let ((.def_83 (and A4 A11))) (let ((.def_84 (or .def_83 .def_82))) (let ((.def_85 (or A8 .def_42))) (let ((.def_86 (not .def_85))) (let ((.def_87 (or A12 A17))) (let ((.def_88 (not .def_87))) (let ((.def_89 (or .def_88 .def_86))) (let ((.def_90 (not .def_89))) (let ((.def_91 (and .def_90 .def_84))) (let ((.def_92 (not A22))) (let ((.def_93 (and A2 .def_92))) (let ((.def_94 (not .def_93))) (let ((.def_95 (or .def_58 A6))) (let ((.def_96 (not .def_95))) (let ((.def_97 (or .def_96 .def_94))) (let ((.def_98 (not .def_97))) (let ((.def_99 (or A20 .def_3))) (let ((.def_100 (and .def_42 A22))) (let ((.def_101 (and .def_100 .def_99))) (let ((.def_102 (and .def_101 .def_98))) (let ((.def_103 (and .def_102 .def_91))) (let ((.def_104 (or .def_103 .def_81))) (let ((.def_105 (and .def_104 .def_55))) (let ((.def_106 (not .def_105))) .def_106))))))))))))))))))))))))))))))))))))))))))))))))))))))))))))))))))))))))))))))))))))))))))))))))))))))))))))
(check-sat)
